784 1568
1 2 2
1 29 3
2 3 4
2 30 4
3 4 4
3 31 3
4 5 3
4 32 3
5 6 5
5 33 3
6 7 2
6 34 3
7 8 3
7 35 5
8 9 1
8 36 3
9 10 1
9 37 3
10 11 5
10 38 2
11 12 5
11 39 4
12 13 5
12 40 3
13 14 1
13 41 1
14 15 3
14 42 3
15 16 2
15 43 1
16 17 4
16 44 1
17 18 5
17 45 5
18 19 1
18 46 1
19 20 2
19 47 4
20 21 4
20 48 4
21 22 5
21 49 5
22 23 4
22 50 4
23 24 4
23 51 4
24 25 5
24 52 2
25 26 4
25 53 5
26 27 5
26 54 5
27 28 3
27 55 4
28 56 4
29 30 1
29 57 5
30 31 4
30 58 5
31 32 3
31 59 2
32 33 2
32 60 5
33 34 3
33 61 5
34 35 5
34 62 5
35 36 4
35 63 3
36 37 1
36 64 2
37 38 5
37 65 4
38 39 3
38 66 3
39 40 5
39 67 2
40 41 2
40 68 4
41 42 1
41 69 1
42 43 3
42 70 5
43 44 3
43 71 5
44 45 1
44 72 5
45 46 1
45 73 5
46 47 5
46 74 3
47 48 1
47 75 2
48 49 2
48 76 5
49 50 3
49 77 4
50 51 3
50 78 1
51 52 5
51 79 5
52 53 3
52 80 3
53 54 2
53 81 2
54 55 4
54 82 2
55 56 1
55 83 1
56 84 3
57 58 1
57 85 4
58 59 1
58 86 2
59 60 2
59 87 2
60 61 1
60 88 5
61 62 2
61 89 3
62 63 5
62 90 3
63 64 2
63 91 3
64 65 5
64 92 4
65 66 5
65 93 2
66 67 3
66 94 5
67 68 1
67 95 1
68 69 4
68 96 2
69 70 1
69 97 4
70 71 4
70 98 2
71 72 5
71 99 3
72 73 4
72 100 1
73 74 3
73 101 2
74 75 2
74 102 3
75 76 4
75 103 3
76 77 3
76 104 3
77 78 1
77 105 5
78 79 5
78 106 3
79 80 2
79 107 5
80 81 2
80 108 2
81 82 3
81 109 5
82 83 4
82 110 5
83 84 3
83 111 1
84 112 3
85 86 3
85 113 3
86 87 5
86 114 3
87 88 5
87 115 5
88 89 3
88 116 3
89 90 3
89 117 2
90 91 5
90 118 2
91 92 2
91 119 1
92 93 3
92 120 1
93 94 2
93 121 5
94 95 5
94 122 1
95 96 4
95 123 1
96 97 3
96 124 1
97 98 5
97 125 2
98 99 5
98 126 3
99 100 3
99 127 2
100 101 3
100 128 4
101 102 1
101 129 4
102 103 3
102 130 5
103 104 1
103 131 5
104 105 4
104 132 4
105 106 5
105 133 1
106 107 5
106 134 2
107 108 2
107 135 5
108 109 3
108 136 4
109 110 3
109 137 3
110 111 4
110 138 2
111 112 2
111 139 1
112 140 3
113 114 1
113 141 4
114 115 4
114 142 3
115 116 1
115 143 3
116 117 4
116 144 4
117 118 2
117 145 1
118 119 1
118 146 2
119 120 5
119 147 2
120 121 4
120 148 3
121 122 5
121 149 4
122 123 3
122 150 3
123 124 1
123 151 5
124 125 3
124 152 2
125 126 5
125 153 1
126 127 4
126 154 1
127 128 2
127 155 3
128 129 1
128 156 2
129 130 3
129 157 2
130 131 1
130 158 1
131 132 3
131 159 1
132 133 4
132 160 5
133 134 1
133 161 4
134 135 4
134 162 2
135 136 3
135 163 2
136 137 2
136 164 3
137 138 3
137 165 1
138 139 3
138 166 3
139 140 3
139 167 1
140 168 5
141 142 1
141 169 1
142 143 2
142 170 4
143 144 2
143 171 2
144 145 5
144 172 4
145 146 4
145 173 2
146 147 2
146 174 1
147 148 3
147 175 3
148 149 5
148 176 4
149 150 2
149 177 1
150 151 3
150 178 4
151 152 1
151 179 3
152 153 4
152 180 5
153 154 3
153 181 5
154 155 1
154 182 2
155 156 4
155 183 2
156 157 3
156 184 5
157 158 4
157 185 2
158 159 3
158 186 2
159 160 4
159 187 3
160 161 3
160 188 1
161 162 3
161 189 1
162 163 2
162 190 4
163 164 2
163 191 5
164 165 5
164 192 4
165 166 5
165 193 5
166 167 3
166 194 4
167 168 4
167 195 1
168 196 2
169 170 1
169 197 3
170 171 5
170 198 4
171 172 3
171 199 3
172 173 1
172 200 5
173 174 3
173 201 2
174 175 4
174 202 1
175 176 1
175 203 5
176 177 3
176 204 4
177 178 3
177 205 4
178 179 3
178 206 4
179 180 5
179 207 1
180 181 2
180 208 5
181 182 2
181 209 2
182 183 1
182 210 3
183 184 3
183 211 5
184 185 5
184 212 4
185 186 5
185 213 5
186 187 3
186 214 4
187 188 2
187 215 2
188 189 2
188 216 3
189 190 4
189 217 4
190 191 3
190 218 1
191 192 3
191 219 1
192 193 1
192 220 1
193 194 5
193 221 3
194 195 5
194 222 5
195 196 1
195 223 4
196 224 2
197 198 5
197 225 3
198 199 5
198 226 2
199 200 5
199 227 3
200 201 1
200 228 1
201 202 1
201 229 1
202 203 1
202 230 5
203 204 3
203 231 3
204 205 4
204 232 3
205 206 5
205 233 1
206 207 4
206 234 3
207 208 2
207 235 3
208 209 2
208 236 1
209 210 2
209 237 5
210 211 2
210 238 2
211 212 2
211 239 1
212 213 1
212 240 4
213 214 2
213 241 3
214 215 1
214 242 4
215 216 4
215 243 3
216 217 1
216 244 3
217 218 2
217 245 2
218 219 5
218 246 3
219 220 1
219 247 2
220 221 4
220 248 4
221 222 3
221 249 5
222 223 2
222 250 5
223 224 2
223 251 5
224 252 5
225 226 4
225 253 4
226 227 3
226 254 3
227 228 2
227 255 4
228 229 2
228 256 2
229 230 3
229 257 5
230 231 2
230 258 3
231 232 4
231 259 1
232 233 2
232 260 1
233 234 1
233 261 1
234 235 1
234 262 3
235 236 2
235 263 2
236 237 3
236 264 5
237 238 1
237 265 4
238 239 5
238 266 5
239 240 2
239 267 1
240 241 3
240 268 3
241 242 3
241 269 2
242 243 1
242 270 1
243 244 5
243 271 4
244 245 4
244 272 2
245 246 3
245 273 3
246 247 5
246 274 3
247 248 1
247 275 5
248 249 1
248 276 5
249 250 2
249 277 2
250 251 5
250 278 1
251 252 2
251 279 2
252 280 5
253 254 1
253 281 5
254 255 2
254 282 4
255 256 3
255 283 2
256 257 4
256 284 3
257 258 2
257 285 4
258 259 3
258 286 5
259 260 4
259 287 5
260 261 2
260 288 4
261 262 2
261 289 3
262 263 1
262 290 3
263 264 3
263 291 2
264 265 3
264 292 1
265 266 2
265 293 1
266 267 4
266 294 4
267 268 1
267 295 4
268 269 1
268 296 2
269 270 3
269 297 3
270 271 1
270 298 4
271 272 4
271 299 5
272 273 4
272 300 4
273 274 4
273 301 3
274 275 3
274 302 4
275 276 3
275 303 3
276 277 4
276 304 1
277 278 5
277 305 3
278 279 5
278 306 1
279 280 3
279 307 2
280 308 4
281 282 5
281 309 5
282 283 5
282 310 3
283 284 5
283 311 5
284 285 5
284 312 2
285 286 2
285 313 3
286 287 1
286 314 3
287 288 5
287 315 5
288 289 2
288 316 4
289 290 3
289 317 5
290 291 3
290 318 5
291 292 2
291 319 3
292 293 5
292 320 3
293 294 4
293 321 1
294 295 2
294 322 1
295 296 3
295 323 5
296 297 1
296 324 5
297 298 1
297 325 1
298 299 5
298 326 2
299 300 4
299 327 4
300 301 5
300 328 1
301 302 2
301 329 3
302 303 4
302 330 3
303 304 4
303 331 5
304 305 1
304 332 4
305 306 1
305 333 5
306 307 4
306 334 2
307 308 4
307 335 2
308 336 4
309 310 3
309 337 5
310 311 4
310 338 2
311 312 3
311 339 3
312 313 3
312 340 2
313 314 2
313 341 2
314 315 1
314 342 4
315 316 2
315 343 2
316 317 2
316 344 5
317 318 5
317 345 5
318 319 1
318 346 4
319 320 2
319 347 5
320 321 4
320 348 2
321 322 2
321 349 4
322 323 1
322 350 4
323 324 3
323 351 3
324 325 2
324 352 4
325 326 2
325 353 4
326 327 5
326 354 3
327 328 4
327 355 2
328 329 3
328 356 3
329 330 1
329 357 4
330 331 3
330 358 4
331 332 2
331 359 4
332 333 4
332 360 1
333 334 1
333 361 2
334 335 1
334 362 2
335 336 5
335 363 1
336 364 3
337 338 3
337 365 4
338 339 1
338 366 4
339 340 3
339 367 5
340 341 1
340 368 3
341 342 4
341 369 1
342 343 3
342 370 5
343 344 2
343 371 5
344 345 1
344 372 2
345 346 4
345 373 3
346 347 2
346 374 1
347 348 5
347 375 2
348 349 1
348 376 5
349 350 3
349 377 5
350 351 5
350 378 3
351 352 5
351 379 4
352 353 1
352 380 2
353 354 2
353 381 2
354 355 1
354 382 4
355 356 1
355 383 5
356 357 5
356 384 3
357 358 2
357 385 5
358 359 1
358 386 2
359 360 4
359 387 3
360 361 1
360 388 5
361 362 1
361 389 3
362 363 2
362 390 1
363 364 1
363 391 3
364 392 5
365 366 1
365 393 1
366 367 4
366 394 1
367 368 2
367 395 2
368 369 3
368 396 3
369 370 5
369 397 5
370 371 2
370 398 1
371 372 2
371 399 5
372 373 3
372 400 1
373 374 4
373 401 3
374 375 1
374 402 5
375 376 4
375 403 3
376 377 1
376 404 4
377 378 2
377 405 4
378 379 3
378 406 4
379 380 3
379 407 3
380 381 1
380 408 3
381 382 3
381 409 4
382 383 5
382 410 4
383 384 5
383 411 3
384 385 1
384 412 3
385 386 2
385 413 3
386 387 3
386 414 1
387 388 4
387 415 3
388 389 3
388 416 1
389 390 3
389 417 3
390 391 1
390 418 4
391 392 2
391 419 2
392 420 3
393 394 4
393 421 3
394 395 2
394 422 5
395 396 1
395 423 2
396 397 2
396 424 5
397 398 5
397 425 3
398 399 5
398 426 1
399 400 2
399 427 3
400 401 4
400 428 3
401 402 3
401 429 5
402 403 4
402 430 3
403 404 1
403 431 5
404 405 1
404 432 4
405 406 5
405 433 1
406 407 4
406 434 3
407 408 4
407 435 3
408 409 1
408 436 2
409 410 5
409 437 3
410 411 1
410 438 4
411 412 4
411 439 4
412 413 5
412 440 3
413 414 4
413 441 1
414 415 3
414 442 2
415 416 1
415 443 4
416 417 1
416 444 5
417 418 3
417 445 3
418 419 1
418 446 2
419 420 1
419 447 2
420 448 5
421 422 1
421 449 2
422 423 1
422 450 3
423 424 2
423 451 4
424 425 1
424 452 2
425 426 4
425 453 5
426 427 2
426 454 2
427 428 1
427 455 3
428 429 1
428 456 1
429 430 4
429 457 5
430 431 5
430 458 1
431 432 4
431 459 5
432 433 5
432 460 4
433 434 5
433 461 4
434 435 5
434 462 5
435 436 1
435 463 4
436 437 5
436 464 2
437 438 2
437 465 4
438 439 4
438 466 3
439 440 1
439 467 4
440 441 5
440 468 3
441 442 3
441 469 1
442 443 2
442 470 5
443 444 2
443 471 2
444 445 1
444 472 4
445 446 1
445 473 3
446 447 3
446 474 2
447 448 3
447 475 1
448 476 3
449 450 5
449 477 5
450 451 1
450 478 5
451 452 5
451 479 2
452 453 2
452 480 1
453 454 5
453 481 4
454 455 5
454 482 1
455 456 2
455 483 5
456 457 5
456 484 1
457 458 5
457 485 1
458 459 2
458 486 2
459 460 2
459 487 4
460 461 3
460 488 1
461 462 3
461 489 5
462 463 2
462 490 3
463 464 5
463 491 4
464 465 4
464 492 5
465 466 5
465 493 2
466 467 3
466 494 4
467 468 3
467 495 4
468 469 1
468 496 5
469 470 3
469 497 1
470 471 1
470 498 5
471 472 4
471 499 3
472 473 1
472 500 2
473 474 3
473 501 5
474 475 5
474 502 1
475 476 5
475 503 4
476 504 5
477 478 3
477 505 2
478 479 2
478 506 1
479 480 4
479 507 4
480 481 2
480 508 1
481 482 5
481 509 2
482 483 2
482 510 1
483 484 5
483 511 4
484 485 1
484 512 3
485 486 1
485 513 1
486 487 5
486 514 1
487 488 3
487 515 5
488 489 1
488 516 4
489 490 4
489 517 2
490 491 2
490 518 1
491 492 5
491 519 3
492 493 5
492 520 2
493 494 3
493 521 2
494 495 3
494 522 4
495 496 1
495 523 1
496 497 3
496 524 3
497 498 4
497 525 5
498 499 3
498 526 4
499 500 1
499 527 5
500 501 1
500 528 1
501 502 5
501 529 1
502 503 2
502 530 5
503 504 2
503 531 4
504 532 2
505 506 5
505 533 1
506 507 5
506 534 3
507 508 1
507 535 5
508 509 1
508 536 2
509 510 5
509 537 4
510 511 1
510 538 4
511 512 1
511 539 1
512 513 4
512 540 3
513 514 2
513 541 1
514 515 3
514 542 1
515 516 2
515 543 5
516 517 4
516 544 1
517 518 1
517 545 2
518 519 5
518 546 1
519 520 1
519 547 3
520 521 2
520 548 1
521 522 1
521 549 5
522 523 5
522 550 3
523 524 4
523 551 4
524 525 3
524 552 3
525 526 4
525 553 5
526 527 1
526 554 5
527 528 4
527 555 4
528 529 4
528 556 3
529 530 1
529 557 5
530 531 1
530 558 2
531 532 2
531 559 1
532 560 3
533 534 1
533 561 3
534 535 2
534 562 1
535 536 4
535 563 1
536 537 2
536 564 5
537 538 5
537 565 5
538 539 5
538 566 3
539 540 4
539 567 3
540 541 2
540 568 5
541 542 3
541 569 1
542 543 4
542 570 2
543 544 4
543 571 3
544 545 2
544 572 5
545 546 2
545 573 4
546 547 5
546 574 5
547 548 4
547 575 4
548 549 1
548 576 1
549 550 3
549 577 2
550 551 4
550 578 5
551 552 2
551 579 5
552 553 2
552 580 3
553 554 1
553 581 3
554 555 1
554 582 5
555 556 2
555 583 1
556 557 2
556 584 4
557 558 5
557 585 3
558 559 4
558 586 5
559 560 2
559 587 3
560 588 4
561 562 4
561 589 2
562 563 2
562 590 4
563 564 3
563 591 1
564 565 2
564 592 1
565 566 3
565 593 4
566 567 2
566 594 3
567 568 5
567 595 3
568 569 3
568 596 5
569 570 5
569 597 4
570 571 3
570 598 2
571 572 3
571 599 4
572 573 5
572 600 3
573 574 4
573 601 5
574 575 4
574 602 2
575 576 5
575 603 3
576 577 4
576 604 5
577 578 3
577 605 2
578 579 2
578 606 3
579 580 2
579 607 2
580 581 4
580 608 4
581 582 1
581 609 5
582 583 1
582 610 2
583 584 2
583 611 5
584 585 3
584 612 5
585 586 3
585 613 5
586 587 2
586 614 4
587 588 3
587 615 3
588 616 3
589 590 4
589 617 2
590 591 5
590 618 2
591 592 4
591 619 4
592 593 3
592 620 1
593 594 3
593 621 1
594 595 3
594 622 1
595 596 4
595 623 2
596 597 3
596 624 2
597 598 3
597 625 5
598 599 2
598 626 3
599 600 3
599 627 1
600 601 5
600 628 5
601 602 3
601 629 3
602 603 2
602 630 2
603 604 3
603 631 3
604 605 5
604 632 4
605 606 5
605 633 3
606 607 4
606 634 4
607 608 4
607 635 3
608 609 2
608 636 3
609 610 1
609 637 4
610 611 3
610 638 3
611 612 2
611 639 2
612 613 4
612 640 2
613 614 2
613 641 3
614 615 5
614 642 2
615 616 4
615 643 1
616 644 1
617 618 4
617 645 1
618 619 3
618 646 3
619 620 4
619 647 4
620 621 4
620 648 2
621 622 1
621 649 3
622 623 2
622 650 1
623 624 2
623 651 1
624 625 4
624 652 2
625 626 1
625 653 1
626 627 1
626 654 2
627 628 1
627 655 3
628 629 4
628 656 5
629 630 3
629 657 1
630 631 1
630 658 4
631 632 2
631 659 2
632 633 2
632 660 4
633 634 4
633 661 3
634 635 4
634 662 5
635 636 1
635 663 5
636 637 4
636 664 4
637 638 5
637 665 5
638 639 3
638 666 3
639 640 1
639 667 4
640 641 2
640 668 3
641 642 5
641 669 1
642 643 3
642 670 2
643 644 1
643 671 3
644 672 3
645 646 4
645 673 5
646 647 1
646 674 2
647 648 2
647 675 4
648 649 4
648 676 4
649 650 3
649 677 3
650 651 3
650 678 3
651 652 2
651 679 3
652 653 4
652 680 2
653 654 3
653 681 3
654 655 5
654 682 3
655 656 5
655 683 2
656 657 2
656 684 3
657 658 1
657 685 2
658 659 1
658 686 3
659 660 5
659 687 1
660 661 4
660 688 1
661 662 1
661 689 2
662 663 3
662 690 5
663 664 3
663 691 1
664 665 4
664 692 1
665 666 3
665 693 1
666 667 2
666 694 4
667 668 1
667 695 4
668 669 5
668 696 3
669 670 2
669 697 3
670 671 2
670 698 4
671 672 5
671 699 2
672 700 2
673 674 5
673 701 1
674 675 4
674 702 2
675 676 5
675 703 2
676 677 3
676 704 5
677 678 3
677 705 5
678 679 5
678 706 4
679 680 3
679 707 2
680 681 5
680 708 1
681 682 1
681 709 2
682 683 5
682 710 5
683 684 3
683 711 5
684 685 1
684 712 4
685 686 1
685 713 5
686 687 3
686 714 3
687 688 5
687 715 3
688 689 2
688 716 1
689 690 2
689 717 1
690 691 2
690 718 3
691 692 5
691 719 4
692 693 4
692 720 4
693 694 2
693 721 1
694 695 1
694 722 3
695 696 2
695 723 4
696 697 4
696 724 1
697 698 1
697 725 2
698 699 3
698 726 1
699 700 5
699 727 1
700 728 5
701 702 2
701 729 4
702 703 2
702 730 1
703 704 4
703 731 2
704 705 1
704 732 2
705 706 2
705 733 4
706 707 3
706 734 1
707 708 1
707 735 2
708 709 3
708 736 3
709 710 3
709 737 1
710 711 2
710 738 4
711 712 5
711 739 4
712 713 2
712 740 3
713 714 1
713 741 1
714 715 3
714 742 5
715 716 1
715 743 4
716 717 1
716 744 4
717 718 4
717 745 4
718 719 4
718 746 4
719 720 3
719 747 2
720 721 3
720 748 5
721 722 4
721 749 4
722 723 1
722 750 5
723 724 2
723 751 2
724 725 3
724 752 3
725 726 5
725 753 2
726 727 2
726 754 5
727 728 1
727 755 2
728 756 5
729 730 1
729 757 5
730 731 1
730 758 3
731 732 5
731 759 3
732 733 4
732 760 4
733 734 4
733 761 4
734 735 2
734 762 4
735 736 4
735 763 2
736 737 3
736 764 2
737 738 3
737 765 1
738 739 2
738 766 3
739 740 2
739 767 2
740 741 5
740 768 4
741 742 3
741 769 1
742 743 4
742 770 4
743 744 5
743 771 4
744 745 5
744 772 4
745 746 1
745 773 5
746 747 1
746 774 5
747 748 2
747 775 2
748 749 2
748 776 2
749 750 5
749 777 4
750 751 2
750 778 4
751 752 2
751 779 5
752 753 2
752 780 3
753 754 2
753 781 2
754 755 2
754 782 5
755 756 4
755 783 3
756 784 1
757 758 2
758 759 5
759 760 1
760 761 1
761 762 3
762 763 1
763 764 4
764 765 3
765 766 4
766 767 1
767 768 1
768 769 3
769 770 4
770 771 2
771 772 4
772 773 4
773 774 3
774 775 2
775 776 3
776 777 3
777 778 1
778 779 2
779 780 4
780 781 3
781 782 4
782 783 3
783 784 2
1 757 4
2 758 4
3 759 3
4 760 4
5 761 5
6 762 4
7 763 4
8 764 1
9 765 2
10 766 3
11 767 5
12 768 5
13 769 1
14 770 4
15 771 4
16 772 2
17 773 1
18 774 3
19 775 2
20 776 5
21 777 5
22 778 5
23 779 3
24 780 3
25 781 3
26 782 4
27 783 4
28 784 1
1 28 5
29 56 3
57 84 1
85 112 4
113 140 3
141 168 5
169 196 4
197 224 4
225 252 3
253 280 5
281 308 1
309 336 5
337 364 2
365 392 1
393 420 4
421 448 5
449 476 5
477 504 4
505 532 2
533 560 1
561 588 5
589 616 1
617 644 5
645 672 5
673 700 2
701 728 1
729 756 1
757 784 4
